33D32945 STP File, STP Format Version 1.0

SECTION Comments
Name "cube_n13_d2_s32"
Problem "Euclidean Steiner Tree Problem"
Remark "Generated with STPGenerator. 2 dimensions."
END

SECTION Graph
Nodes 13
END

SECTION Coordinates
DD 0 0.4496756841 0.6990365287
DD 1 0.6652369316 0.7215187111
DD 2 0.8656997224 0.5431189162
DD 3 0.5266172777 0.9129774263
DD 4 0.7480876026 0.1786557348
DD 5 0.2697567126 0.1478463012
DD 6 0.3054385443 0.1172210561
DD 7 0.1922058562 0.6652606896
DD 8 0.7645411136 0.9098374536
DD 9 0.1333542867 0.6234359283
DD 10 0.2597159544 0.6775168025
DD 11 0.4244183676 0.8089938242
DD 12 0.7790788094 0.2599427934
END
